100 10
744 268
292 152
793 884
476 306
234 580
705 223
447 204
79 338
308 241
573 584
559 213
768 88
346 852
331 253
695 168
748 474
535 273
678 601
309 760
91 882
736 487
691 579
823 637
408 719
815 563
740 252
355 496
285 172
409 331
566 292
645 696
510 499
751 522
725 728
941 574
175 827
411 792
789 643
626 853
561 639
390 693
399 278
645 421
303 309
428 454
434 566
188 434
186 830
623 449
468 799
767 747
301 169
659 636
269 492
471 779
357 460
885 472
595 609
495 902
208 431
275 187
676 411
10 505
396 80
301 533
575 388
343 246
467 190
710 843
780 611
257 639
243 635
672 763
569 495
952 652
527 263
121 463
486 699
431 637
446 779
349 378
108 289
428 556
455 277
224 617
454 369
413 663
711 311
729 455
533 933
930 527
605 457
371 199
417 782
414 259
668 223
306 453
238 298
719 365
611 821
